Route #1: 17 31
Route #2: 9 22 30 28 13 7
Route #3: 16 6 10 25
Route #4: 11 1
Route #5: 4 8 14
Route #6: 20
Route #7: 12
Route #8: 27 15
Route #9: 3 29 5
Route #10: 2
Route #11: 23 26 19 21
Route #12: 24 18

Cost: 2273.155178545435
